(set-info :smt-lib-version 2.6)
(set-logic UFLRA)
(set-info :source |
Generated by: Geoff Sutcliffe
Generated on: 2026-03-11
Generator: TPTPWorld
Application: Benchmarking automated theorem provers
Time limit: 120.0

These benchmarks are translations from the TPTP Library (Thousands of
Problems for Theorem Provers), see http://www.cs.miami.edu/~tptp/

The TPTP is maintained by Geoff Sutcliffe, and he contributed this
selection of benchmarks to SMT-LIB.  They were exported from the
v9.2.1 realease of TPTP.
|)
(set-info :category "industrial")
(set-info :status unknown)
; SZS status Success
(declare-sort $$unsorted 0)
(declare-fun tptp.l14 () Real)
(declare-fun tptp.l4 () Real)
(declare-fun tptp.l5 () Real)
(declare-fun tptp.f0 (Real) Real)
(declare-fun tptp.f2 (Real) Real)
(declare-fun tptp.l2 () Real)
(declare-fun tptp.a () Real)
(declare-fun tptp.l15 () Real)
(declare-fun tptp.f1 (Real) Real)
(declare-fun tptp.l10 () Real)
(declare-fun tptp.l1 () Real)
(declare-fun tptp.l13 () Real)
(declare-fun tptp.l11 () Real)
(declare-fun tptp.l7 () Real)
(declare-fun tptp.l () Real)
(declare-fun tptp.l9 () Real)
(declare-fun tptp.l3 () Real)
(declare-fun tptp.f3 (Real) Real)
(declare-fun tptp.l12 () Real)
(declare-fun tptp.l8 () Real)
(declare-fun tptp.l6 () Real)
(assert (forall ((Epsilon Real)) (=> (< 0.0 Epsilon) (exists ((Delta Real)) (and (< 0.0 Delta) (forall ((X Real)) (let ((_let_1 (- (tptp.f3 X) tptp.l))) (let ((_let_2 (>= _let_1 0.0))) (let ((_let_3 (- X tptp.l1))) (let ((_let_4 (>= _let_3 0.0))) (=> (and (not (= X tptp.l1)) (=> _let_4 (< _let_3 Delta)) (=> (not _let_4) (< (- _let_3) Delta))) (and (=> _let_2 (< _let_1 Epsilon)) (=> (not _let_2) (< (- _let_1) Epsilon))))))))))))))
(assert (forall ((Epsilon Real)) (=> (< 0.0 Epsilon) (exists ((Delta Real)) (and (< 0.0 Delta) (forall ((X Real)) (let ((_let_1 (- (tptp.f2 X) tptp.l1))) (let ((_let_2 (>= _let_1 0.0))) (let ((_let_3 (- X tptp.l2))) (let ((_let_4 (>= _let_3 0.0))) (=> (and (not (= X tptp.l2)) (=> _let_4 (< _let_3 Delta)) (=> (not _let_4) (< (- _let_3) Delta))) (and (=> _let_2 (< _let_1 Epsilon)) (=> (not _let_2) (< (- _let_1) Epsilon))))))))))))))
(assert (forall ((Epsilon Real)) (=> (< 0.0 Epsilon) (exists ((Delta Real)) (and (< 0.0 Delta) (forall ((X Real)) (let ((_let_1 (- (tptp.f1 X) tptp.l2))) (let ((_let_2 (>= _let_1 0.0))) (let ((_let_3 (- X tptp.l3))) (let ((_let_4 (>= _let_3 0.0))) (=> (and (not (= X tptp.l3)) (=> _let_4 (< _let_3 Delta)) (=> (not _let_4) (< (- _let_3) Delta))) (and (=> _let_2 (< _let_1 Epsilon)) (=> (not _let_2) (< (- _let_1) Epsilon))))))))))))))
(assert (forall ((Epsilon Real)) (=> (< 0.0 Epsilon) (exists ((Delta Real)) (and (< 0.0 Delta) (forall ((X Real)) (let ((_let_1 (- (tptp.f0 X) tptp.l3))) (let ((_let_2 (>= _let_1 0.0))) (let ((_let_3 (- X tptp.l4))) (let ((_let_4 (>= _let_3 0.0))) (=> (and (not (= X tptp.l4)) (=> _let_4 (< _let_3 Delta)) (=> (not _let_4) (< (- _let_3) Delta))) (and (=> _let_2 (< _let_1 Epsilon)) (=> (not _let_2) (< (- _let_1) Epsilon))))))))))))))
(assert (forall ((Epsilon Real)) (=> (< 0.0 Epsilon) (exists ((Delta Real)) (and (< 0.0 Delta) (forall ((X Real)) (let ((_let_1 (- (tptp.f1 X) tptp.l4))) (let ((_let_2 (>= _let_1 0.0))) (let ((_let_3 (- X tptp.l5))) (let ((_let_4 (>= _let_3 0.0))) (=> (and (not (= X tptp.l5)) (=> _let_4 (< _let_3 Delta)) (=> (not _let_4) (< (- _let_3) Delta))) (and (=> _let_2 (< _let_1 Epsilon)) (=> (not _let_2) (< (- _let_1) Epsilon))))))))))))))
(assert (forall ((Epsilon Real)) (=> (< 0.0 Epsilon) (exists ((Delta Real)) (and (< 0.0 Delta) (forall ((X Real)) (let ((_let_1 (- (tptp.f3 X) tptp.l5))) (let ((_let_2 (>= _let_1 0.0))) (let ((_let_3 (- X tptp.l6))) (let ((_let_4 (>= _let_3 0.0))) (=> (and (not (= X tptp.l6)) (=> _let_4 (< _let_3 Delta)) (=> (not _let_4) (< (- _let_3) Delta))) (and (=> _let_2 (< _let_1 Epsilon)) (=> (not _let_2) (< (- _let_1) Epsilon))))))))))))))
(assert (forall ((Epsilon Real)) (=> (< 0.0 Epsilon) (exists ((Delta Real)) (and (< 0.0 Delta) (forall ((X Real)) (let ((_let_1 (- (tptp.f1 X) tptp.l6))) (let ((_let_2 (>= _let_1 0.0))) (let ((_let_3 (- X tptp.l7))) (let ((_let_4 (>= _let_3 0.0))) (=> (and (not (= X tptp.l7)) (=> _let_4 (< _let_3 Delta)) (=> (not _let_4) (< (- _let_3) Delta))) (and (=> _let_2 (< _let_1 Epsilon)) (=> (not _let_2) (< (- _let_1) Epsilon))))))))))))))
(assert (forall ((Epsilon Real)) (=> (< 0.0 Epsilon) (exists ((Delta Real)) (and (< 0.0 Delta) (forall ((X Real)) (let ((_let_1 (- (tptp.f2 X) tptp.l7))) (let ((_let_2 (>= _let_1 0.0))) (let ((_let_3 (- X tptp.l8))) (let ((_let_4 (>= _let_3 0.0))) (=> (and (not (= X tptp.l8)) (=> _let_4 (< _let_3 Delta)) (=> (not _let_4) (< (- _let_3) Delta))) (and (=> _let_2 (< _let_1 Epsilon)) (=> (not _let_2) (< (- _let_1) Epsilon))))))))))))))
(assert (forall ((Epsilon Real)) (=> (< 0.0 Epsilon) (exists ((Delta Real)) (and (< 0.0 Delta) (forall ((X Real)) (let ((_let_1 (- (tptp.f2 X) tptp.l8))) (let ((_let_2 (>= _let_1 0.0))) (let ((_let_3 (- X tptp.l9))) (let ((_let_4 (>= _let_3 0.0))) (=> (and (not (= X tptp.l9)) (=> _let_4 (< _let_3 Delta)) (=> (not _let_4) (< (- _let_3) Delta))) (and (=> _let_2 (< _let_1 Epsilon)) (=> (not _let_2) (< (- _let_1) Epsilon))))))))))))))
(assert (forall ((Epsilon Real)) (=> (< 0.0 Epsilon) (exists ((Delta Real)) (and (< 0.0 Delta) (forall ((X Real)) (let ((_let_1 (- (tptp.f1 X) tptp.l9))) (let ((_let_2 (>= _let_1 0.0))) (let ((_let_3 (- X tptp.l10))) (let ((_let_4 (>= _let_3 0.0))) (=> (and (not (= X tptp.l10)) (=> _let_4 (< _let_3 Delta)) (=> (not _let_4) (< (- _let_3) Delta))) (and (=> _let_2 (< _let_1 Epsilon)) (=> (not _let_2) (< (- _let_1) Epsilon))))))))))))))
(assert (forall ((Epsilon Real)) (=> (< 0.0 Epsilon) (exists ((Delta Real)) (and (< 0.0 Delta) (forall ((X Real)) (let ((_let_1 (- (tptp.f0 X) tptp.l10))) (let ((_let_2 (>= _let_1 0.0))) (let ((_let_3 (- X tptp.l11))) (let ((_let_4 (>= _let_3 0.0))) (=> (and (not (= X tptp.l11)) (=> _let_4 (< _let_3 Delta)) (=> (not _let_4) (< (- _let_3) Delta))) (and (=> _let_2 (< _let_1 Epsilon)) (=> (not _let_2) (< (- _let_1) Epsilon))))))))))))))
(assert (forall ((Epsilon Real)) (=> (< 0.0 Epsilon) (exists ((Delta Real)) (and (< 0.0 Delta) (forall ((X Real)) (let ((_let_1 (- (tptp.f0 X) tptp.l11))) (let ((_let_2 (>= _let_1 0.0))) (let ((_let_3 (- X tptp.l12))) (let ((_let_4 (>= _let_3 0.0))) (=> (and (not (= X tptp.l12)) (=> _let_4 (< _let_3 Delta)) (=> (not _let_4) (< (- _let_3) Delta))) (and (=> _let_2 (< _let_1 Epsilon)) (=> (not _let_2) (< (- _let_1) Epsilon))))))))))))))
(assert (forall ((Epsilon Real)) (=> (< 0.0 Epsilon) (exists ((Delta Real)) (and (< 0.0 Delta) (forall ((X Real)) (let ((_let_1 (- (tptp.f3 X) tptp.l12))) (let ((_let_2 (>= _let_1 0.0))) (let ((_let_3 (- X tptp.l13))) (let ((_let_4 (>= _let_3 0.0))) (=> (and (not (= X tptp.l13)) (=> _let_4 (< _let_3 Delta)) (=> (not _let_4) (< (- _let_3) Delta))) (and (=> _let_2 (< _let_1 Epsilon)) (=> (not _let_2) (< (- _let_1) Epsilon))))))))))))))
(assert (forall ((Epsilon Real)) (=> (< 0.0 Epsilon) (exists ((Delta Real)) (and (< 0.0 Delta) (forall ((X Real)) (let ((_let_1 (- (tptp.f1 X) tptp.l13))) (let ((_let_2 (>= _let_1 0.0))) (let ((_let_3 (- X tptp.l14))) (let ((_let_4 (>= _let_3 0.0))) (=> (and (not (= X tptp.l14)) (=> _let_4 (< _let_3 Delta)) (=> (not _let_4) (< (- _let_3) Delta))) (and (=> _let_2 (< _let_1 Epsilon)) (=> (not _let_2) (< (- _let_1) Epsilon))))))))))))))
(assert (forall ((Epsilon Real)) (=> (< 0.0 Epsilon) (exists ((Delta Real)) (and (< 0.0 Delta) (forall ((X Real)) (let ((_let_1 (- (tptp.f0 X) tptp.l14))) (let ((_let_2 (>= _let_1 0.0))) (let ((_let_3 (- X tptp.l15))) (let ((_let_4 (>= _let_3 0.0))) (=> (and (not (= X tptp.l15)) (=> _let_4 (< _let_3 Delta)) (=> (not _let_4) (< (- _let_3) Delta))) (and (=> _let_2 (< _let_1 Epsilon)) (=> (not _let_2) (< (- _let_1) Epsilon))))))))))))))
(assert (forall ((Epsilon Real)) (=> (< 0.0 Epsilon) (exists ((Delta Real)) (and (< 0.0 Delta) (forall ((X Real)) (let ((_let_1 (- (tptp.f0 X) tptp.l15))) (let ((_let_2 (>= _let_1 0.0))) (let ((_let_3 (- X tptp.a))) (let ((_let_4 (>= _let_3 0.0))) (=> (and (not (= X tptp.a)) (=> _let_4 (< _let_3 Delta)) (=> (not _let_4) (< (- _let_3) Delta))) (and (=> _let_2 (< _let_1 Epsilon)) (=> (not _let_2) (< (- _let_1) Epsilon))))))))))))))
(assert (not (forall ((Epsilon Real)) (=> (< 0.0 Epsilon) (exists ((Delta Real)) (and (< 0.0 Delta) (forall ((X Real)) (let ((_let_1 (- (tptp.f3 (tptp.f2 (tptp.f1 (tptp.f0 (tptp.f1 (tptp.f3 (tptp.f1 (tptp.f2 (tptp.f2 (tptp.f1 (tptp.f0 (tptp.f0 (tptp.f3 (tptp.f1 (tptp.f0 (tptp.f0 X)))))))))))))))) tptp.l))) (let ((_let_2 (>= _let_1 0.0))) (let ((_let_3 (- X tptp.a))) (let ((_let_4 (>= _let_3 0.0))) (=> (and (not (= X tptp.a)) (=> _let_4 (< _let_3 Delta)) (=> (not _let_4) (< (- _let_3) Delta))) (and (=> _let_2 (< _let_1 Epsilon)) (=> (not _let_2) (< (- _let_1) Epsilon)))))))))))))))
(check-sat)
(exit)
